Optimal - objective value 19.00000000
      4 x_0_5                   1                       3
     12 x_0_13                  1                       2
     53 x_2_19                  1                       2
    139 x_9_14                  1                       3
    144 x_9_19                  1                       1
    161 x_11_19                 1                       2
    171 x_13_16                 1                       2
    180 x_15_16                 1                       2
    182 x_15_18                 1                       1
    189 x_18_19                 1                       1
    198 f_0_5                 4.5                       0
    199 f_5_0                 3.5                       0
    214 f_0_13                7.5                       0
    215 f_13_0    0.499999999999999                       0
    296 f_2_19                3.5                       0
    297 f_19_2                4.5                       0
    468 f_9_14                4.5                       0
    469 f_14_9                3.5                       0
    479 f_19_9                  2                       0
    513 f_19_11                 1                       0
    532 f_13_16                 7                       0
    533 f_16_13   0.999999999999998                       0
    550 f_15_16               1.5                       0
    551 f_16_15               6.5                       0
    554 f_15_18                 6                       0
    555 f_18_15                 2                       0
    568 f_18_19                 6                       0
    569 f_19_18                 2                       0
